p tw 144 23761 2 
1 3 
1 4 
1 5 
1 6 
1 7 
1 8 
1 9 
1 10 
1 11 
1 12 
1 13 
1 18 
1 25 
1 33 
1 37 
1 47 
1 49 
1 60 
1 61 
1 64 
1 73 
1 79 
1 85 
1 92 
1 97 
1 101 
1 109 
1 111 
1 121 
1 130 
1 133 
1 134 
2 3 
2 4 
2 5 
2 6 
2 7 
2 8 
2 9 
2 10 
2 11 
2 12 
2 13 
2 14 
2 26 
2 32 
2 38 
2 43 
2 50 
2 59 
2 62 
2 63 
2 74 
2 81 
2 86 
2 90 
2 98 
2 108 
2 110 
2 118 
2 122 
2 125 
2 134 
2 136 
3 4 
3 5 
3 6 
3 7 
3 8 
3 9 
3 10 
3 11 
3 12 
3 15 
3 20 
3 27 
3 29 
3 39 
3 40 
3 50 
3 51 
3 63 
3 69 
3 73 
3 75 
3 87 
3 91 
3 99 
3 107 
3 111 
3 120 
3 123 
3 126 
3 135 
3 142 
4 5 
4 6 
4 7 
4 8 
4 9 
4 10 
4 11 
4 12 
4 14 
4 16 
4 28 
4 36 
4 40 
4 42 
4 52 
4 57 
4 64 
4 71 
4 76 
4 82 
4 87 
4 88 
4 100 
4 104 
4 112 
4 115 
4 121 
4 124 
4 136 
4 137 
5 6 
5 7 
5 8 
5 9 
5 10 
5 11 
5 12 
5 17 
5 22 
5 29 
5 31 
5 39 
5 41 
5 53 
5 56 
5 62 
5 65 
5 77 
5 84 
5 85 
5 89 
5 101 
5 102 
5 113 
5 117 
5 124 
5 125 
5 137 
5 143 
6 7 
6 8 
6 9 
6 10 
6 11 
6 12 
6 18 
6 24 
6 26 
6 30 
6 41 
6 42 
6 51 
6 54 
6 66 
6 67 
6 78 
6 80 
6 90 
6 94 
6 97 
6 102 
6 112 
6 114 
6 126 
6 131 
6 138 
6 141 
7 8 
7 9 
7 10 
7 11 
7 12 
7 17 
7 19 
7 30 
7 31 
7 43 
7 46 
7 52 
7 55 
7 67 
7 72 
7 79 
7 83 
7 86 
7 91 
7 99 
7 103 
7 109 
7 115 
7 127 
7 129 
7 139 
7 140 
8 9 
8 10 
8 11 
8 12 
8 20 
8 23 
8 28 
8 32 
8 37 
8 44 
8 56 
8 58 
8 66 
8 68 
8 74 
8 80 
8 92 
8 93 
8 103 
8 104 
8 113 
8 116 
8 128 
8 132 
8 135 
8 140 
9 10 
9 11 
9 12 
9 19 
9 21 
9 33 
9 35 
9 44 
9 45 
9 53 
9 57 
9 61 
9 69 
9 75 
9 81 
9 88 
9 93 
9 105 
9 106 
9 114 
9 117 
9 122 
9 129 
9 141 
9 144 
10 11 
10 12 
10 21 
10 22 
10 25 
10 34 
10 46 
10 48 
10 54 
10 58 
10 68 
10 70 
10 76 
10 82 
10 89 
10 94 
10 98 
10 106 
10 118 
10 119 
10 123 
10 130 
10 139 
10 142 
11 12 
11 16 
11 23 
11 27 
11 35 
11 38 
11 47 
11 49 
11 59 
11 70 
11 71 
11 77 
11 83 
11 95 
11 96 
11 105 
11 107 
11 116 
11 119 
11 127 
11 131 
11 138 
11 143 
12 15 
12 24 
12 34 
12 36 
12 45 
12 48 
12 55 
12 60 
12 65 
12 72 
12 78 
12 84 
12 95 
12 96 
12 100 
12 108 
12 110 
12 120 
12 128 
12 132 
12 133 
12 144 
13 14 
13 15 
13 16 
13 17 
13 18 
13 19 
13 20 
13 21 
13 22 
13 23 
13 24 
13 25 
13 32 
13 37 
13 43 
13 49 
13 59 
13 61 
13 63 
13 73 
13 81 
13 85 
13 90 
13 97 
13 108 
13 109 
13 118 
13 121 
13 125 
13 133 
13 136 
14 15 
14 16 
14 17 
14 18 
14 19 
14 20 
14 21 
14 22 
14 23 
14 24 
14 26 
14 36 
14 38 
14 42 
14 50 
14 57 
14 62 
14 71 
14 74 
14 82 
14 86 
14 87 
14 98 
14 104 
14 110 
14 115 
14 121 
14 122 
14 134 
14 137 
15 16 
15 17 
15 18 
15 19 
15 20 
15 21 
15 22 
15 23 
15 24 
15 27 
15 34 
15 39 
15 45 
15 51 
15 55 
15 63 
15 65 
15 75 
15 78 
15 87 
15 95 
15 99 
15 100 
15 110 
15 111 
15 123 
15 128 
15 133 
15 135 
16 17 
16 18 
16 19 
16 20 
16 21 
16 22 
16 23 
16 24 
16 27 
16 28 
16 38 
16 40 
16 49 
16 52 
16 64 
16 70 
16 76 
16 77 
16 88 
16 96 
16 100 
16 105 
16 112 
16 116 
16 124 
16 127 
16 136 
16 138 
17 18 
17 19 
17 20 
17 21 
17 22 
17 23 
17 24 
17 29 
17 30 
17 41 
17 46 
17 52 
17 53 
17 65 
17 72 
17 77 
17 83 
17 86 
17 89 
17 99 
17 101 
17 109 
17 113 
17 125 
17 129 
17 137 
17 140 
18 19 
18 20 
18 21 
18 22 
18 23 
18 24 
18 30 
18 33 
18 42 
18 47 
18 54 
18 60 
18 64 
18 66 
18 78 
18 79 
18 90 
18 92 
18 101 
18 102 
18 111 
18 114 
18 126 
18 130 
18 134 
18 138 
19 20 
19 21 
19 22 
19 23 
19 24 
19 31 
19 35 
19 43 
19 44 
19 53 
19 55 
19 61 
19 67 
19 75 
19 79 
19 88 
19 91 
19 103 
19 106 
19 114 
19 115 
19 122 
19 127 
19 139 
19 144 
20 21 
20 22 
20 23 
20 24 
20 29 
20 32 
20 40 
20 44 
20 50 
20 56 
20 68 
20 69 
20 73 
20 80 
20 91 
20 92 
20 104 
20 107 
20 116 
20 120 
20 126 
20 128 
20 140 
20 142 
21 22 
21 23 
21 24 
21 25 
21 33 
21 45 
21 48 
21 54 
21 57 
21 68 
21 69 
21 76 
21 81 
21 89 
21 93 
21 98 
21 105 
21 117 
21 119 
21 123 
21 129 
21 139 
21 141 
22 23 
22 24 
22 31 
22 34 
22 39 
22 46 
22 56 
22 58 
22 62 
22 70 
22 82 
22 84 
22 85 
22 94 
22 102 
22 106 
22 117 
22 118 
22 124 
22 130 
22 142 
22 143 
23 24 
23 28 
23 35 
23 37 
23 47 
23 58 
23 59 
23 66 
23 71 
23 74 
23 83 
23 93 
23 95 
23 103 
23 107 
23 113 
23 119 
23 131 
23 132 
23 135 
23 143 
24 26 
24 36 
24 41 
24 48 
24 51 
24 60 
24 67 
24 72 
24 80 
24 84 
24 94 
24 96 
24 97 
24 108 
24 112 
24 120 
24 131 
24 132 
24 141 
24 144 
25 26 
25 27 
25 28 
25 29 
25 30 
25 31 
25 32 
25 33 
25 34 
25 35 
25 36 
25 37 
25 48 
25 49 
25 54 
25 61 
25 68 
25 73 
25 76 
25 85 
25 89 
25 97 
25 98 
25 109 
25 119 
25 121 
25 123 
25 133 
25 139 
26 27 
26 28 
26 29 
26 30 
26 31 
26 32 
26 33 
26 34 
26 35 
26 36 
26 38 
26 41 
26 50 
26 51 
26 62 
26 67 
26 74 
26 80 
26 86 
26 94 
26 97 
26 98 
26 110 
26 112 
26 122 
26 131 
26 134 
26 141 
27 28 
27 29 
27 30 
27 31 
27 32 
27 33 
27 34 
27 35 
27 36 
27 38 
27 39 
27 49 
27 51 
27 63 
27 70 
27 75 
27 77 
27 87 
27 96 
27 99 
27 105 
27 111 
27 116 
27 123 
27 127 
27 135 
27 138 
28 29 
28 30 
28 31 
28 32 
28 33 
28 34 
28 35 
28 36 
28 37 
28 40 
28 52 
28 58 
28 64 
28 66 
28 74 
28 76 
28 88 
28 93 
28 100 
28 103 
28 112 
28 113 
28 124 
28 132 
28 135 
28 136 
29 30 
29 31 
29 32 
29 33 
29 34 
29 35 
29 36 
29 40 
29 41 
29 50 
29 53 
29 65 
29 69 
29 73 
29 77 
29 89 
29 91 
29 101 
29 107 
29 113 
29 120 
29 125 
29 126 
29 137 
29 142 
30 31 
30 32 
30 33 
30 34 
30 35 
30 36 
30 42 
30 46 
30 52 
30 54 
30 66 
30 72 
30 78 
30 83 
30 86 
30 90 
30 99 
30 102 
30 109 
30 114 
30 126 
30 129 
30 138 
30 140 
31 32 
31 33 
31 34 
31 35 
31 36 
31 39 
31 43 
31 55 
31 56 
31 62 
31 67 
31 79 
31 84 
31 85 
31 91 
31 102 
31 103 
31 115 
31 117 
31 124 
31 127 
31 139 
31 143 
32 33 
32 34 
32 35 
32 36 
32 43 
32 44 
32 56 
32 59 
32 63 
32 68 
32 80 
32 81 
32 90 
32 92 
32 104 
32 108 
32 116 
32 118 
32 125 
32 128 
32 136 
32 140 
33 34 
33 35 
33 36 
33 45 
33 47 
33 57 
33 60 
33 64 
33 69 
33 79 
33 81 
33 92 
33 93 
33 101 
33 105 
33 111 
33 117 
33 129 
33 130 
33 134 
33 141 
34 35 
34 36 
34 45 
34 46 
34 55 
34 58 
34 65 
34 70 
34 78 
34 82 
34 94 
34 95 
34 100 
34 106 
34 110 
34 118 
34 128 
34 130 
34 133 
34 142 
35 36 
35 44 
35 47 
35 53 
35 59 
35 61 
35 71 
35 75 
35 83 
35 88 
35 95 
35 106 
35 107 
35 114 
35 119 
35 122 
35 131 
35 143 
35 144 
36 42 
36 48 
36 57 
36 60 
36 71 
36 72 
36 82 
36 84 
36 87 
36 96 
36 104 
36 108 
36 115 
36 120 
36 121 
36 132 
36 137 
36 144 
37 38 
37 39 
37 40 
37 41 
37 42 
37 43 
37 44 
37 45 
37 46 
37 47 
37 48 
37 49 
37 58 
37 61 
37 66 
37 73 
37 74 
37 85 
37 93 
37 97 
37 103 
37 109 
37 113 
37 121 
37 132 
37 133 
37 135 
38 39 
38 40 
38 41 
38 42 
38 43 
38 44 
38 45 
38 46 
38 47 
38 48 
38 49 
38 50 
38 62 
38 70 
38 74 
38 77 
38 86 
38 96 
38 98 
38 105 
38 110 
38 116 
38 122 
38 127 
38 134 
38 138 
39 40 
39 41 
39 42 
39 43 
39 44 
39 45 
39 46 
39 47 
39 48 
39 51 
39 56 
39 62 
39 63 
39 75 
39 84 
39 85 
39 87 
39 99 
39 102 
39 111 
39 117 
39 123 
39 124 
39 135 
39 143 
40 41 
40 42 
40 43 
40 44 
40 45 
40 46 
40 47 
40 48 
40 50 
40 52 
40 64 
40 69 
40 73 
40 76 
40 88 
40 91 
40 100 
40 107 
40 112 
40 120 
40 124 
40 126 
40 136 
40 142 
41 42 
41 43 
41 44 
41 45 
41 46 
41 47 
41 48 
41 51 
41 53 
41 65 
41 67 
41 77 
41 80 
41 89 
41 94 
41 97 
41 101 
41 112 
41 113 
41 125 
41 131 
41 137 
41 141 
42 43 
42 44 
42 45 
42 46 
42 47 
42 48 
42 54 
42 57 
42 66 
42 71 
42 78 
42 82 
42 87 
42 90 
42 102 
42 104 
42 114 
42 115 
42 121 
42 126 
42 137 
42 138 
43 44 
43 45 
43 46 
43 47 
43 48 
43 55 
43 59 
43 63 
43 67 
43 79 
43 81 
43 90 
43 91 
43 103 
43 108 
43 115 
43 118 
43 125 
43 127 
43 136 
43 139 
44 45 
44 46 
44 47 
44 48 
44 53 
44 56 
44 61 
44 68 
44 75 
44 80 
44 88 
44 92 
44 104 
44 106 
44 114 
44 116 
44 122 
44 128 
44 140 
44 144 
45 46 
45 47 
45 48 
45 55 
45 57 
45 65 
45 69 
45 78 
45 81 
45 93 
45 95 
45 100 
45 105 
45 110 
45 117 
45 128 
45 129 
45 133 
45 141 
46 47 
46 48 
46 52 
46 58 
46 70 
46 72 
46 82 
46 83 
46 86 
46 94 
46 99 
46 106 
46 109 
46 118 
46 129 
46 130 
46 140 
46 142 
47 48 
47 59 
47 60 
47 64 
47 71 
47 79 
47 83 
47 92 
47 95 
47 101 
47 107 
47 111 
47 119 
47 130 
47 131 
47 134 
47 143 
48 54 
48 60 
48 68 
48 72 
48 76 
48 84 
48 89 
48 96 
48 98 
48 108 
48 119 
48 120 
48 123 
48 132 
48 139 
48 144 
49 50 
49 51 
49 52 
49 53 
49 54 
49 55 
49 56 
49 57 
49 58 
49 59 
49 60 
49 61 
49 70 
49 73 
49 77 
49 85 
49 96 
49 97 
49 105 
49 109 
49 116 
49 121 
49 127 
49 133 
49 138 
50 51 
50 52 
50 53 
50 54 
50 55 
50 56 
50 57 
50 58 
50 59 
50 60 
50 62 
50 69 
50 73 
50 74 
50 86 
50 91 
50 98 
50 107 
50 110 
50 120 
50 122 
50 126 
50 134 
50 142 
51 52 
51 53 
51 54 
51 55 
51 56 
51 57 
51 58 
51 59 
51 60 
51 63 
51 67 
51 75 
51 80 
51 87 
51 94 
51 97 
51 99 
51 111 
51 112 
51 123 
51 131 
51 135 
51 141 
52 53 
52 54 
52 55 
52 56 
52 57 
52 58 
52 59 
52 60 
52 64 
52 72 
52 76 
52 83 
52 86 
52 88 
52 99 
52 100 
52 109 
52 112 
52 124 
52 129 
52 136 
52 140 
53 54 
53 55 
53 56 
53 57 
53 58 
53 59 
53 60 
53 61 
53 65 
53 75 
53 77 
53 88 
53 89 
53 101 
53 106 
53 113 
53 114 
53 122 
53 125 
53 137 
53 144 
54 55 
54 56 
54 57 
54 58 
54 59 
54 60 
54 66 
54 68 
54 76 
54 78 
54 89 
54 90 
54 98 
54 102 
54 114 
54 119 
54 123 
54 126 
54 138 
54 139 
55 56 
55 57 
55 58 
55 59 
55 60 
55 65 
55 67 
55 78 
55 79 
55 91 
55 95 
55 100 
55 103 
55 110 
55 115 
55 127 
55 128 
55 133 
55 139 
56 57 
56 58 
56 59 
56 60 
56 62 
56 68 
56 80 
56 84 
56 85 
56 92 
56 102 
56 104 
56 116 
56 117 
56 124 
56 128 
56 140 
56 143 
57 58 
57 59 
57 60 
57 69 
57 71 
57 81 
57 82 
57 87 
57 93 
57 104 
57 105 
57 115 
57 117 
57 121 
57 129 
57 137 
57 141 
58 59 
58 60 
58 66 
58 70 
58 74 
58 82 
58 93 
58 94 
58 103 
58 106 
58 113 
58 118 
58 130 
58 132 
58 135 
58 142 
59 60 
59 63 
59 71 
59 81 
59 83 
59 90 
59 95 
59 107 
59 108 
59 118 
59 119 
59 125 
59 131 
59 136 
59 143 
60 64 
60 72 
60 79 
60 84 
60 92 
60 96 
60 101 
60 108 
60 111 
60 120 
60 130 
60 132 
60 134 
60 144 
61 62 
61 63 
61 64 
61 65 
61 66 
61 67 
61 68 
61 69 
61 70 
61 71 
61 72 
61 73 
61 75 
61 85 
61 88 
61 97 
61 106 
61 109 
61 114 
61 121 
61 122 
61 133 
61 144 
62 63 
62 64 
62 65 
62 66 
62 67 
62 68 
62 69 
62 70 
62 71 
62 72 
62 74 
62 84 
62 85 
62 86 
62 98 
62 102 
62 110 
62 117 
62 122 
62 124 
62 134 
62 143 
63 64 
63 65 
63 66 
63 67 
63 68 
63 69 
63 70 
63 71 
63 72 
63 75 
63 81 
63 87 
63 90 
63 99 
63 108 
63 111 
63 118 
63 123 
63 125 
63 135 
63 136 
64 65 
64 66 
64 67 
64 68 
64 69 
64 70 
64 71 
64 72 
64 76 
64 79 
64 88 
64 92 
64 100 
64 101 
64 111 
64 112 
64 124 
64 130 
64 134 
64 136 
65 66 
65 67 
65 68 
65 69 
65 70 
65 71 
65 72 
65 77 
65 78 
65 89 
65 95 
65 100 
65 101 
65 110 
65 113 
65 125 
65 128 
65 133 
65 137 
66 67 
66 68 
66 69 
66 70 
66 71 
66 72 
66 74 
66 78 
66 90 
66 93 
66 102 
66 103 
66 113 
66 114 
66 126 
66 132 
66 135 
66 138 
67 68 
67 69 
67 70 
67 71 
67 72 
67 79 
67 80 
67 91 
67 94 
67 97 
67 103 
67 112 
67 115 
67 127 
67 131 
67 139 
67 141 
68 69 
68 70 
68 71 
68 72 
68 76 
68 80 
68 89 
68 92 
68 98 
68 104 
68 116 
68 119 
68 123 
68 128 
68 139 
68 140 
69 70 
69 71 
69 72 
69 73 
69 81 
69 91 
69 93 
69 105 
69 107 
69 117 
69 120 
69 126 
69 129 
69 141 
69 142 
70 71 
70 72 
70 77 
70 82 
70 94 
70 96 
70 105 
70 106 
70 116 
70 118 
70 127 
70 130 
70 138 
70 142 
71 72 
71 82 
71 83 
71 87 
71 95 
71 104 
71 107 
71 115 
71 119 
71 121 
71 131 
71 137 
71 143 
72 83 
72 84 
72 86 
72 96 
72 99 
72 108 
72 109 
72 120 
72 129 
72 132 
72 140 
72 144 
73 74 
73 75 
73 76 
73 77 
73 78 
73 79 
73 80 
73 81 
73 82 
73 83 
73 84 
73 85 
73 91 
73 97 
73 107 
73 109 
73 120 
73 121 
73 126 
73 133 
73 142 
74 75 
74 76 
74 77 
74 78 
74 79 
74 80 
74 81 
74 82 
74 83 
74 84 
74 86 
74 93 
74 98 
74 103 
74 110 
74 113 
74 122 
74 132 
74 134 
74 135 
75 76 
75 77 
75 78 
75 79 
75 80 
75 81 
75 82 
75 83 
75 84 
75 87 
75 88 
75 99 
75 106 
75 111 
75 114 
75 122 
75 123 
75 135 
75 144 
76 77 
76 78 
76 79 
76 80 
76 81 
76 82 
76 83 
76 84 
76 88 
76 89 
76 98 
76 100 
76 112 
76 119 
76 123 
76 124 
76 136 
76 139 
77 78 
77 79 
77 80 
77 81 
77 82 
77 83 
77 84 
77 89 
77 96 
77 101 
77 105 
77 113 
77 116 
77 125 
77 127 
77 137 
77 138 
78 79 
78 80 
78 81 
78 82 
78 83 
78 84 
78 90 
78 95 
78 100 
78 102 
78 110 
78 114 
78 126 
78 128 
78 133 
78 138 
79 80 
79 81 
79 82 
79 83 
79 84 
79 91 
79 92 
79 101 
79 103 
79 111 
79 115 
79 127 
79 130 
79 134 
79 139 
80 81 
80 82 
80 83 
80 84 
80 92 
80 94 
80 97 
80 104 
80 112 
80 116 
80 128 
80 131 
80 140 
80 141 
81 82 
81 83 
81 84 
81 90 
81 93 
81 105 
81 108 
81 117 
81 118 
81 125 
81 129 
81 136 
81 141 
82 83 
82 84 
82 87 
82 94 
82 104 
82 106 
82 115 
82 118 
82 121 
82 130 
82 137 
82 142 
83 84 
83 86 
83 95 
83 99 
83 107 
83 109 
83 119 
83 129 
83 131 
83 140 
83 143 
84 85 
84 96 
84 102 
84 108 
84 117 
84 120 
84 124 
84 132 
84 143 
84 144 
85 86 
85 87 
85 88 
85 89 
85 90 
85 91 
85 92 
85 93 
85 94 
85 95 
85 96 
85 97 
85 102 
85 109 
85 117 
85 121 
85 124 
85 133 
85 143 
86 87 
86 88 
86 89 
86 90 
86 91 
86 92 
86 93 
86 94 
86 95 
86 96 
86 98 
86 99 
86 109 
86 110 
86 122 
86 129 
86 134 
86 140 
87 88 
87 89 
87 90 
87 91 
87 92 
87 93 
87 94 
87 95 
87 96 
87 99 
87 104 
87 111 
87 115 
87 121 
87 123 
87 135 
87 137 
88 89 
88 90 
88 91 
88 92 
88 93 
88 94 
88 95 
88 96 
88 100 
88 106 
88 112 
88 114 
88 122 
88 124 
88 136 
88 144 
89 90 
89 91 
89 92 
89 93 
89 94 
89 95 
89 96 
89 98 
89 101 
89 113 
89 119 
89 123 
89 125 
89 137 
89 139 
90 91 
90 92 
90 93 
90 94 
90 95 
90 96 
90 102 
90 108 
90 114 
90 118 
90 125 
90 126 
90 136 
90 138 
91 92 
91 93 
91 94 
91 95 
91 96 
91 103 
91 107 
91 115 
91 120 
91 126 
91 127 
91 139 
91 142 
92 93 
92 94 
92 95 
92 96 
92 101 
92 104 
92 111 
92 116 
92 128 
92 130 
92 134 
92 140 
93 94 
93 95 
93 96 
93 103 
93 105 
93 113 
93 117 
93 129 
93 132 
93 135 
93 141 
94 95 
94 96 
94 97 
94 106 
94 112 
94 118 
94 130 
94 131 
94 141 
94 142 
95 96 
95 100 
95 107 
95 110 
95 119 
95 128 
95 131 
95 133 
95 143 
96 105 
96 108 
96 116 
96 120 
96 127 
96 132 
96 138 
96 144 
97 98 
97 99 
97 100 
97 101 
97 102 
97 103 
97 104 
97 105 
97 106 
97 107 
97 108 
97 109 
97 112 
97 121 
97 131 
97 133 
97 141 
98 99 
98 100 
98 101 
98 102 
98 103 
98 104 
98 105 
98 106 
98 107 
98 108 
98 110 
98 119 
98 122 
98 123 
98 134 
98 139 
99 100 
99 101 
99 102 
99 103 
99 104 
99 105 
99 106 
99 107 
99 108 
99 109 
99 111 
99 123 
99 129 
99 135 
99 140 
100 101 
100 102 
100 103 
100 104 
100 105 
100 106 
100 107 
100 108 
100 110 
100 112 
100 124 
100 128 
100 133 
100 136 
101 102 
101 103 
101 104 
101 105 
101 106 
101 107 
101 108 
101 111 
101 113 
101 125 
101 130 
101 134 
101 137 
102 103 
102 104 
102 105 
102 106 
102 107 
102 108 
102 114 
102 117 
102 124 
102 126 
102 138 
102 143 
103 104 
103 105 
103 106 
103 107 
103 108 
103 113 
103 115 
103 127 
103 132 
103 135 
103 139 
104 105 
104 106 
104 107 
104 108 
104 115 
104 116 
104 121 
104 128 
104 137 
104 140 
105 106 
105 107 
105 108 
105 116 
105 117 
105 127 
105 129 
105 138 
105 141 
106 107 
106 108 
106 114 
106 118 
106 122 
106 130 
106 142 
106 144 
107 108 
107 119 
107 120 
107 126 
107 131 
107 142 
107 143 
108 118 
108 120 
108 125 
108 132 
108 136 
108 144 
109 110 
109 111 
109 112 
109 113 
109 114 
109 115 
109 116 
109 117 
109 118 
109 119 
109 120 
109 121 
109 129 
109 133 
109 140 
110 111 
110 112 
110 113 
110 114 
110 115 
110 116 
110 117 
110 118 
110 119 
110 120 
110 122 
110 128 
110 133 
110 134 
111 112 
111 113 
111 114 
111 115 
111 116 
111 117 
111 118 
111 119 
111 120 
111 123 
111 130 
111 134 
111 135 
112 113 
112 114 
112 115 
112 116 
112 117 
112 118 
112 119 
112 120 
112 124 
112 131 
112 136 
112 141 
113 114 
113 115 
113 116 
113 117 
113 118 
113 119 
113 120 
113 125 
113 132 
113 135 
113 137 
114 115 
114 116 
114 117 
114 118 
114 119 
114 120 
114 122 
114 126 
114 138 
114 144 
115 116 
115 117 
115 118 
115 119 
115 120 
115 121 
115 127 
115 137 
115 139 
116 117 
116 118 
116 119 
116 120 
116 127 
116 128 
116 138 
116 140 
117 118 
117 119 
117 120 
117 124 
117 129 
117 141 
117 143 
118 119 
118 120 
118 125 
118 130 
118 136 
118 142 
119 120 
119 123 
119 131 
119 139 
119 143 
120 126 
120 132 
120 142 
120 144 
121 122 
121 123 
121 124 
121 125 
121 126 
121 127 
121 128 
121 129 
121 130 
121 131 
121 132 
121 133 
121 137 
122 123 
122 124 
122 125 
122 126 
122 127 
122 128 
122 129 
122 130 
122 131 
122 132 
122 134 
122 144 
123 124 
123 125 
123 126 
123 127 
123 128 
123 129 
123 130 
123 131 
123 132 
123 135 
123 139 
124 125 
124 126 
124 127 
124 128 
124 129 
124 130 
124 131 
124 132 
124 136 
124 143 
125 126 
125 127 
125 128 
125 129 
125 130 
125 131 
125 132 
125 136 
125 137 
126 127 
126 128 
126 129 
126 130 
126 131 
126 132 
126 138 
126 142 
127 128 
127 129 
127 130 
127 131 
127 132 
127 138 
127 139 
128 129 
128 130 
128 131 
128 132 
128 133 
128 140 
129 130 
129 131 
129 132 
129 140 
129 141 
130 131 
130 132 
130 134 
130 142 
131 132 
131 141 
131 143 
132 135 
132 144 
133 134 
133 135 
133 136 
133 137 
133 138 
133 139 
133 140 
133 141 
133 142 
133 143 
133 144 
134 135 
134 136 
134 137 
134 138 
134 139 
134 140 
134 141 
134 142 
134 143 
134 144 
135 136 
135 137 
135 138 
135 139 
135 140 
135 141 
135 142 
135 143 
135 144 
136 137 
136 138 
136 139 
136 140 
136 141 
136 142 
136 143 
136 144 
137 138 
137 139 
137 140 
137 141 
137 142 
137 143 
137 144 
138 139 
138 140 
138 141 
138 142 
138 143 
138 144 
139 140 
139 141 
139 142 
139 143 
139 144 
140 141 
140 142 
140 143 
140 144 
141 142 
141 143 
141 144 
142 143 
142 144 
143 144 
